c 0.00273895263671875 (encode time in sec)
p cnf 125 280
1 2 3 4 0
1 2 -3 5 0
1 -2 3 7 0
1 -2 -3 6 0
-1 2 3 4 0
-1 2 -3 0
-1 -2 3 0
-1 -2 -3 0
8 9 10 15 0
8 9 -10 14 0
8 -9 10 11 0
8 -9 -10 12 0
-8 9 10 13 0
-8 9 -10 0
-8 -9 10 0
-8 -9 -10 0
16 17 18 19 0
16 17 -18 20 0
16 -17 18 21 0
16 -17 -18 22 0
-16 17 18 23 0
-16 17 -18 0
-16 -17 18 0
-16 -17 -18 0
24 25 26 1 2 3 8 9 10 28 0
24 25 26 1 2 3 8 9 -10 28 0
24 25 26 1 2 3 8 -9 10 27 0
24 25 26 1 2 3 8 -9 -10 0
24 25 26 1 2 3 -8 9 10 30 0
24 25 26 1 2 -3 8 9 10 28 0
24 25 26 1 2 -3 8 9 -10 29 0
24 25 26 1 2 -3 8 -9 10 0
24 25 26 1 2 -3 8 -9 -10 0
24 25 26 1 2 -3 -8 9 10 0
24 25 26 1 -2 3 8 9 10 32 0
24 25 26 1 -2 3 8 9 -10 44 0
24 25 26 1 -2 3 8 -9 10 0
24 25 26 1 -2 3 8 -9 -10 0
24 25 26 1 -2 3 -8 9 10 0
24 25 26 1 -2 -3 8 9 10 30 0
24 25 26 1 -2 -3 8 9 -10 0
24 25 26 1 -2 -3 8 -9 10 0
24 25 26 1 -2 -3 8 -9 -10 0
24 25 26 1 -2 -3 -8 9 10 0
24 25 26 -1 2 3 8 9 10 30 0
24 25 26 -1 2 3 8 9 -10 0
24 25 26 -1 2 3 8 -9 10 0
24 25 26 -1 2 3 8 -9 -10 0
24 25 26 -1 2 3 -8 9 10 30 0
24 25 -26 1 2 3 8 9 10 0
24 25 -26 1 2 3 8 9 -10 0
24 25 -26 1 2 3 8 -9 10 33 0
24 25 -26 1 2 3 8 -9 -10 0
24 25 -26 1 2 3 -8 9 10 30 0
24 25 -26 1 2 -3 8 9 10 0
24 25 -26 1 2 -3 8 9 -10 34 0
24 25 -26 1 2 -3 8 -9 10 35 0
24 25 -26 1 2 -3 8 -9 -10 0
24 25 -26 1 2 -3 -8 9 10 0
24 25 -26 1 -2 3 8 9 10 52 0
24 25 -26 1 -2 3 8 9 -10 38 0
24 25 -26 1 -2 3 8 -9 10 46 0
24 25 -26 1 -2 3 8 -9 -10 0
24 25 -26 1 -2 3 -8 9 10 0
24 25 -26 1 -2 -3 8 9 10 32 0
24 25 -26 1 -2 -3 8 9 -10 36 0
24 25 -26 1 -2 -3 8 -9 10 0
24 25 -26 1 -2 -3 8 -9 -10 0
24 25 -26 1 -2 -3 -8 9 10 0
24 25 -26 -1 2 3 8 9 10 30 0
24 25 -26 -1 2 3 8 9 -10 0
24 25 -26 -1 2 3 8 -9 10 0
24 25 -26 -1 2 3 8 -9 -10 0
24 25 -26 -1 2 3 -8 9 10 30 0
24 -25 26 1 2 3 8 9 10 0
24 -25 26 1 2 3 8 9 -10 0
24 -25 26 1 2 3 8 -9 10 54 0
24 -25 26 1 2 3 8 -9 -10 28 0
24 -25 26 1 2 3 -8 9 10 30 0
24 -25 26 1 2 -3 8 9 10 0
24 -25 26 1 2 -3 8 9 -10 0
24 -25 26 1 2 -3 8 -9 10 42 0
24 -25 26 1 2 -3 8 -9 -10 49 0
24 -25 26 1 2 -3 -8 9 10 45 0
24 -25 26 1 -2 3 8 9 10 0
24 -25 26 1 -2 3 8 9 -10 50 0
24 -25 26 1 -2 3 8 -9 10 51 0
24 -25 26 1 -2 3 8 -9 -10 53 0
24 -25 26 1 -2 3 -8 9 10 0
24 -25 26 1 -2 -3 8 9 10 47 0
24 -25 26 1 -2 -3 8 9 -10 49 0
24 -25 26 1 -2 -3 8 -9 10 55 0
24 -25 26 1 -2 -3 8 -9 -10 0
24 -25 26 1 -2 -3 -8 9 10 0
24 -25 26 -1 2 3 8 9 10 30 0
24 -25 26 -1 2 3 8 9 -10 57 0
24 -25 26 -1 2 3 8 -9 10 0
24 -25 26 -1 2 3 8 -9 -10 0
24 -25 26 -1 2 3 -8 9 10 30 0
24 -25 -26 1 2 3 8 9 10 0
24 -25 -26 1 2 3 8 9 -10 0
24 -25 -26 1 2 3 8 -9 10 0
24 -25 -26 1 2 3 8 -9 -10 0
24 -25 -26 1 2 3 -8 9 10 30 0
24 -25 -26 1 2 -3 8 9 10 0
24 -25 -26 1 2 -3 8 9 -10 0
24 -25 -26 1 2 -3 8 -9 10 39 0
24 -25 -26 1 2 -3 8 -9 -10 36 0
24 -25 -26 1 2 -3 -8 9 10 43 0
24 -25 -26 1 -2 3 8 9 10 0
24 -25 -26 1 -2 3 8 9 -10 0
24 -25 -26 1 -2 3 8 -9 10 46 0
24 -25 -26 1 -2 3 8 -9 -10 58 0
24 -25 -26 1 -2 3 -8 9 10 60 0
24 -25 -26 1 -2 -3 8 9 10 0
24 -25 -26 1 -2 -3 8 9 -10 0
24 -25 -26 1 -2 -3 8 -9 10 40 0
24 -25 -26 1 -2 -3 8 -9 -10 56 0
24 -25 -26 1 -2 -3 -8 9 10 0
24 -25 -26 -1 2 3 8 9 10 30 0
24 -25 -26 -1 2 3 8 9 -10 38 0
24 -25 -26 -1 2 3 8 -9 10 37 0
24 -25 -26 -1 2 3 8 -9 -10 0
24 -25 -26 -1 2 3 -8 9 10 30 0
-24 25 26 1 2 3 8 9 10 0
-24 25 26 1 2 3 8 9 -10 0
-24 25 26 1 2 3 8 -9 10 0
-24 25 26 1 2 3 8 -9 -10 0
-24 25 26 1 2 3 -8 9 10 30 0
-24 25 26 1 2 -3 8 9 10 0
-24 25 26 1 2 -3 8 9 -10 0
-24 25 26 1 2 -3 8 -9 10 0
-24 25 26 1 2 -3 8 -9 -10 0
-24 25 26 1 2 -3 -8 9 10 45 0
-24 25 26 1 -2 3 8 9 10 0
-24 25 26 1 -2 3 8 9 -10 0
-24 25 26 1 -2 3 8 -9 10 0
-24 25 26 1 -2 3 8 -9 -10 48 0
-24 25 26 1 -2 3 -8 9 10 37 0
-24 25 26 1 -2 -3 8 9 10 0
-24 25 26 1 -2 -3 8 9 -10 0
-24 25 26 1 -2 -3 8 -9 10 0
-24 25 26 1 -2 -3 8 -9 -10 41 0
-24 25 26 1 -2 -3 -8 9 10 28 0
-24 25 26 -1 2 3 8 9 10 30 0
-24 25 26 -1 2 3 8 9 -10 0
-24 25 26 -1 2 3 8 -9 10 59 0
-24 25 26 -1 2 3 8 -9 -10 28 0
-24 25 26 -1 2 3 -8 9 10 30 0
-24 25 -26 0
-24 -25 26 0
-24 -25 -26 0
61 62 63 16 17 18 24 25 26 64 0
61 62 63 16 17 18 24 25 -26 65 0
61 62 63 16 17 18 24 -25 26 71 0
61 62 63 16 17 18 24 -25 -26 87 0
61 62 63 16 17 18 -24 25 26 123 0
61 62 63 16 17 -18 24 25 26 66 0
61 62 63 16 17 -18 24 25 -26 112 0
61 62 63 16 17 -18 24 -25 26 110 0
61 62 63 16 17 -18 24 -25 -26 74 0
61 62 63 16 17 -18 -24 25 26 108 0
61 62 63 16 -17 18 24 25 26 67 0
61 62 63 16 -17 18 24 25 -26 125 0
61 62 63 16 -17 18 24 -25 26 88 0
61 62 63 16 -17 18 24 -25 -26 97 0
61 62 63 16 -17 18 -24 25 26 92 0
61 62 63 16 -17 -18 24 25 26 68 0
61 62 63 16 -17 -18 24 25 -26 87 0
61 62 63 16 -17 -18 24 -25 26 85 0
61 62 63 16 -17 -18 24 -25 -26 81 0
61 62 63 16 -17 -18 -24 25 26 111 0
61 62 63 -16 17 18 24 25 26 64 0
61 62 63 -16 17 18 24 25 -26 106 0
61 62 63 -16 17 18 24 -25 26 119 0
61 62 63 -16 17 18 24 -25 -26 107 0
61 62 63 -16 17 18 -24 25 26 64 0
61 62 -63 16 17 18 24 25 26 64 0
61 62 -63 16 17 18 24 25 -26 69 0
61 62 -63 16 17 18 24 -25 26 70 0
61 62 -63 16 17 18 24 -25 -26 87 0
61 62 -63 16 17 18 -24 25 26 123 0
61 62 -63 16 17 -18 24 25 26 72 0
61 62 -63 16 17 -18 24 25 -26 73 0
61 62 -63 16 17 -18 24 -25 26 113 0
61 62 -63 16 17 -18 24 -25 -26 74 0
61 62 -63 16 17 -18 -24 25 26 108 0
61 62 -63 16 -17 18 24 25 26 124 0
61 62 -63 16 -17 18 24 25 -26 79 0
61 62 -63 16 -17 18 24 -25 26 88 0
61 62 -63 16 -17 18 24 -25 -26 97 0
61 62 -63 16 -17 18 -24 25 26 92 0
61 62 -63 16 -17 -18 24 25 26 117 0
61 62 -63 16 -17 -18 24 25 -26 100 0
61 62 -63 16 -17 -18 24 -25 26 85 0
61 62 -63 16 -17 -18 24 -25 -26 81 0
61 62 -63 16 -17 -18 -24 25 26 111 0
61 62 -63 -16 17 18 24 25 26 64 0
61 62 -63 -16 17 18 24 25 -26 106 0
61 62 -63 -16 17 18 24 -25 26 119 0
61 62 -63 -16 17 18 24 -25 -26 107 0
61 62 -63 -16 17 18 -24 25 26 64 0
61 -62 63 16 17 18 24 25 26 64 0
61 -62 63 16 17 18 24 25 -26 78 0
61 -62 63 16 17 18 24 -25 26 109 0
61 -62 63 16 17 18 24 -25 -26 82 0
61 -62 63 16 17 18 -24 25 26 123 0
61 -62 63 16 17 -18 24 25 26 91 0
61 -62 63 16 17 -18 24 25 -26 114 0
61 -62 63 16 17 -18 24 -25 26 101 0
61 -62 63 16 17 -18 24 -25 -26 102 0
61 -62 63 16 17 -18 -24 25 26 108 0
61 -62 63 16 -17 18 24 25 26 122 0
61 -62 63 16 -17 18 24 25 -26 75 0
61 -62 63 16 -17 18 24 -25 26 98 0
61 -62 63 16 -17 18 24 -25 -26 93 0
61 -62 63 16 -17 18 -24 25 26 92 0
61 -62 63 16 -17 -18 24 25 26 108 0
61 -62 63 16 -17 -18 24 25 -26 94 0
61 -62 63 16 -17 -18 24 -25 26 115 0
61 -62 63 16 -17 -18 24 -25 -26 81 0
61 -62 63 16 -17 -18 -24 25 26 111 0
61 -62 63 -16 17 18 24 25 26 64 0
61 -62 63 -16 17 18 24 25 -26 76 0
61 -62 63 -16 17 18 24 -25 26 83 0
61 -62 63 -16 17 18 24 -25 -26 107 0
61 -62 63 -16 17 18 -24 25 26 64 0
61 -62 -63 16 17 18 24 25 26 64 0
61 -62 -63 16 17 18 24 25 -26 78 0
61 -62 -63 16 17 18 24 -25 26 71 0
61 -62 -63 16 17 18 24 -25 -26 103 0
61 -62 -63 16 17 18 -24 25 26 80 0
61 -62 -63 16 17 -18 24 25 26 91 0
61 -62 -63 16 17 -18 24 25 -26 120 0
61 -62 -63 16 17 -18 24 -25 26 110 0
61 -62 -63 16 17 -18 24 -25 -26 118 0
61 -62 -63 16 17 -18 -24 25 26 68 0
61 -62 -63 16 -17 18 24 25 26 122 0
61 -62 -63 16 -17 18 24 25 -26 125 0
61 -62 -63 16 -17 18 24 -25 26 104 0
61 -62 -63 16 -17 18 24 -25 -26 105 0
61 -62 -63 16 -17 18 -24 25 26 86 0
61 -62 -63 16 -17 -18 24 25 26 108 0
61 -62 -63 16 -17 -18 24 25 -26 87 0
61 -62 -63 16 -17 -18 24 -25 26 99 0
61 -62 -63 16 -17 -18 24 -25 -26 95 0
61 -62 -63 16 -17 -18 -24 25 26 111 0
61 -62 -63 -16 17 18 24 25 26 64 0
61 -62 -63 -16 17 18 24 25 -26 106 0
61 -62 -63 -16 17 18 24 -25 26 89 0
61 -62 -63 -16 17 18 24 -25 -26 107 0
61 -62 -63 -16 17 18 -24 25 26 64 0
-61 62 63 16 17 18 24 25 26 64 0
-61 62 63 16 17 18 24 25 -26 78 0
-61 62 63 16 17 18 24 -25 26 71 0
-61 62 63 16 17 18 24 -25 -26 87 0
-61 62 63 16 17 18 -24 25 26 90 0
-61 62 63 16 17 -18 24 25 26 91 0
-61 62 63 16 17 -18 24 25 -26 120 0
-61 62 63 16 17 -18 24 -25 26 110 0
-61 62 63 16 17 -18 24 -25 -26 74 0
-61 62 63 16 17 -18 -24 25 26 117 0
-61 62 63 16 -17 18 24 25 26 122 0
-61 62 63 16 -17 18 24 25 -26 125 0
-61 62 63 16 -17 18 24 -25 26 88 0
-61 62 63 16 -17 18 24 -25 -26 116 0
-61 62 63 16 -17 18 -24 25 26 77 0
-61 62 63 16 -17 -18 24 25 26 108 0
-61 62 63 16 -17 -18 24 25 -26 87 0
-61 62 63 16 -17 -18 24 -25 26 85 0
-61 62 63 16 -17 -18 24 -25 -26 96 0
-61 62 63 16 -17 -18 -24 25 26 121 0
-61 62 63 -16 17 18 24 25 26 64 0
-61 62 63 -16 17 18 24 25 -26 106 0
-61 62 63 -16 17 18 24 -25 26 119 0
-61 62 63 -16 17 18 24 -25 -26 84 0
-61 62 63 -16 17 18 -24 25 26 64 0
-61 62 -63 0
-61 -62 63 0
-61 -62 -63 0
